50
1 0 111
2 0 99
2 1 59
3 0 59
3 1 53
3 2 46
4 0 77
4 1 38
4 2 93
4 3 10
5 0 77
5 1 98
5 2 12
5 3 36
5 4 33
6 0 78
6 1 33
6 2 67
6 3 27
6 4 111
6 5 72
7 0 118
7 1 60
7 2 71
7 3 12
7 4 56
7 5 42
7 6 42
8 0 38
8 1 44
8 2 116
8 3 45
8 4 83
8 5 79
8 6 99
8 7 46
9 0 99
9 1 77
9 2 68
9 3 106
9 4 40
9 5 81
9 6 94
9 7 68
9 8 13
10 0 77
10 1 3
10 2 35
10 3 10
10 4 2
10 5 112
10 6 7
10 7 111
10 8 85
10 9 44
11 0 101
11 1 24
11 2 24
11 3 101
11 4 48
11 5 110
11 6 62
11 7 83
11 8 25
11 9 64
11 10 11
12 0 96
12 1 24
12 2 103
12 3 66
12 4 92
12 5 8
12 6 40
12 7 3
12 8 99
12 9 20
12 10 84
12 11 58
13 0 120
13 1 37
13 2 8
13 3 18
13 4 22
13 5 9
13 6 92
13 7 14
13 8 25
13 9 39
13 10 79
13 11 68
13 12 5
14 0 12
14 1 79
14 2 42
14 3 85
14 4 4
14 5 83
14 6 91
14 7 75
14 8 8
14 9 46
14 10 83
14 11 33
14 12 119
14 13 11
15 0 88
15 1 70
15 2 12
15 3 24
15 4 82
15 5 48
15 6 18
15 7 86
15 8 63
15 9 99
15 10 15
15 11 74
15 12 2
15 13 49
15 14 94
16 0 55
16 1 41
16 2 55
16 3 97
16 4 23
16 5 57
16 6 106
16 7 7
16 8 33
16 9 14
16 10 46
16 11 45
16 12 51
16 13 67
16 14 113
16 15 87
17 0 79
17 1 85
17 2 104
17 3 100
17 4 54
17 5 7
17 6 100
17 7 55
17 8 14
17 9 58
17 10 91
17 11 6
17 12 106
17 13 13
17 14 43
17 15 44
17 16 8
18 0 66
18 1 94
18 2 37
18 3 51
18 4 42
18 5 80
18 6 14
18 7 81
18 8 45
18 9 51
18 10 77
18 11 71
18 12 65
18 13 97
18 14 28
18 15 26
18 16 10
18 17 100
19 0 80
19 1 28
19 2 27
19 3 84
19 4 1
19 5 40
19 6 8
19 7 46
19 8 33
19 9 28
19 10 109
19 11 103
19 12 68
19 13 89
19 14 47
19 15 34
19 16 82
19 17 104
19 18 29
20 0 62
20 1 74
20 2 118
20 3 46
20 4 95
20 5 51
20 6 56
20 7 90
20 8 63
20 9 32
20 10 60
20 11 11
20 12 54
20 13 86
20 14 82
20 15 67
20 16 75
20 17 68
20 18 98
20 19 111
21 0 118
21 1 89
21 2 4
21 3 77
21 4 62
21 5 15
21 6 3
21 7 17
21 8 26
21 9 33
21 10 14
21 11 13
21 12 38
21 13 51
21 14 44
21 15 67
21 16 74
21 17 31
21 18 8
21 19 120
21 20 92
22 0 32
22 1 21
22 2 3
22 3 105
22 4 91
22 5 81
22 6 8
22 7 101
22 8 99
22 9 98
22 10 24
22 11 17
22 12 94
22 13 90
22 14 19
22 15 20
22 16 108
22 17 9
22 18 8
22 19 27
22 20 63
22 21 22
23 0 60
23 1 91
23 2 94
23 3 62
23 4 92
23 5 61
23 6 63
23 7 20
23 8 79
23 9 74
23 10 32
23 11 32
23 12 12
23 13 103
23 14 18
23 15 28
23 16 39
23 17 73
23 18 37
23 19 96
23 20 54
23 21 15
23 22 6
24 0 45
24 1 99
24 2 30
24 3 100
24 4 16
24 5 38
24 6 92
24 7 114
24 8 114
24 9 56
24 10 92
24 11 26
24 12 3
24 13 27
24 14 2
24 15 45
24 16 94
24 17 68
24 18 119
24 19 97
24 20 69
24 21 46
24 22 18
24 23 91
25 0 114
25 1 41
25 2 74
25 3 30
25 4 101
25 5 68
25 6 38
25 7 50
25 8 94
25 9 54
25 10 32
25 11 97
25 12 108
25 13 100
25 14 59
25 15 117
25 16 69
25 17 57
25 18 109
25 19 50
25 20 95
25 21 56
25 22 116
25 23 75
25 24 65
26 0 117
26 1 7
26 2 103
26 3 4
26 4 81
26 5 109
26 6 100
26 7 46
26 8 60
26 9 48
26 10 67
26 11 4
26 12 79
26 13 74
26 14 107
26 15 22
26 16 21
26 17 17
26 18 69
26 19 111
26 20 33
26 21 83
26 22 109
26 23 105
26 24 35
26 25 92
27 0 24
27 1 53
27 2 18
27 3 109
27 4 82
27 5 9
27 6 49
27 7 73
27 8 82
27 9 22
27 10 54
27 11 16
27 12 113
27 13 57
27 14 54
27 15 86
27 16 78
27 17 105
27 18 115
27 19 100
27 20 59
27 21 61
27 22 48
27 23 75
27 24 79
27 25 7
27 26 107
28 0 77
28 1 97
28 2 90
28 3 112
28 4 47
28 5 41
28 6 88
28 7 8
28 8 62
28 9 53
28 10 56
28 11 71
28 12 57
28 13 93
28 14 64
28 15 88
28 16 2
28 17 103
28 18 110
28 19 3
28 20 119
28 21 50
28 22 88
28 23 89
28 24 12
28 25 25
28 26 98
28 27 80
29 0 90
29 1 31
29 2 98
29 3 56
29 4 7
29 5 48
29 6 67
29 7 61
29 8 80
29 9 67
29 10 114
29 11 117
29 12 119
29 13 21
29 14 73
29 15 44
29 16 115
29 17 93
29 18 115
29 19 2
29 20 47
29 21 59
29 22 74
29 23 15
29 24 82
29 25 11
29 26 20
29 27 29
29 28 35
30 0 101
30 1 86
30 2 68
30 3 23
30 4 18
30 5 97
30 6 22
30 7 61
30 8 117
30 9 71
30 10 24
30 11 92
30 12 41
30 13 39
30 14 63
30 15 58
30 16 56
30 17 79
30 18 68
30 19 25
30 20 40
30 21 18
30 22 21
30 23 16
30 24 89
30 25 7
30 26 77
30 27 89
30 28 22
30 29 49
31 0 64
31 1 48
31 2 116
31 3 90
31 4 80
31 5 81
31 6 73
31 7 17
31 8 68
31 9 93
31 10 36
31 11 47
31 12 11
31 13 58
31 14 110
31 15 51
31 16 24
31 17 53
31 18 11
31 19 49
31 20 116
31 21 80
31 22 8
31 23 118
31 24 43
31 25 66
31 26 57
31 27 88
31 28 44
31 29 116
31 30 42
32 0 88
32 1 53
32 2 118
32 3 97
32 4 96
32 5 49
32 6 51
32 7 37
32 8 99
32 9 46
32 10 34
32 11 64
32 12 28
32 13 18
32 14 86
32 15 17
32 16 69
32 17 18
32 18 13
32 19 114
32 20 83
32 21 16
32 22 48
32 23 51
32 24 113
32 25 109
32 26 96
32 27 45
32 28 63
32 29 108
32 30 51
32 31 43
33 0 105
33 1 55
33 2 65
33 3 18
33 4 64
33 5 120
33 6 60
33 7 25
33 8 20
33 9 62
33 10 64
33 11 15
33 12 58
33 13 8
33 14 100
33 15 45
33 16 32
33 17 23
33 18 102
33 19 115
33 20 100
33 21 48
33 22 72
33 23 74
33 24 63
33 25 29
33 26 36
33 27 104
33 28 18
33 29 63
33 30 105
33 31 111
33 32 50
34 0 79
34 1 110
34 2 31
34 3 90
34 4 40
34 5 34
34 6 60
34 7 23
34 8 110
34 9 54
34 10 85
34 11 3
34 12 26
34 13 8
34 14 53
34 15 64
34 16 74
34 17 72
34 18 112
34 19 118
34 20 85
34 21 109
34 22 63
34 23 76
34 24 96
34 25 15
34 26 5
34 27 62
34 28 18
34 29 19
34 30 80
34 31 25
34 32 68
34 33 87
35 0 91
35 1 101
35 2 107
35 3 99
35 4 55
35 5 5
35 6 57
35 7 103
35 8 6
35 9 81
35 10 63
35 11 117
35 12 57
35 13 49
35 14 23
35 15 30
35 16 66
35 17 73
35 18 66
35 19 106
35 20 70
35 21 120
35 22 111
35 23 49
35 24 63
35 25 21
35 26 24
35 27 72
35 28 119
35 29 96
35 30 15
35 31 90
35 32 70
35 33 18
35 34 79
36 0 31
36 1 50
36 2 47
36 3 113
36 4 99
36 5 106
36 6 66
36 7 46
36 8 92
36 9 107
36 10 34
36 11 117
36 12 10
36 13 25
36 14 97
36 15 104
36 16 45
36 17 84
36 18 71
36 19 90
36 20 92
36 21 51
36 22 83
36 23 64
36 24 54
36 25 2
36 26 95
36 27 63
36 28 43
36 29 99
36 30 51
36 31 2
36 32 28
36 33 73
36 34 102
36 35 101
37 0 12
37 1 107
37 2 63
37 3 69
37 4 95
37 5 27
37 6 40
37 7 35
37 8 17
37 9 114
37 10 95
37 11 116
37 12 109
37 13 22
37 14 120
37 15 17
37 16 84
37 17 25
37 18 9
37 19 39
37 20 28
37 21 56
37 22 34
37 23 23
37 24 106
37 25 83
37 26 23
37 27 78
37 28 37
37 29 12
37 30 41
37 31 43
37 32 63
37 33 67
37 34 72
37 35 21
37 36 107
38 0 13
38 1 112
38 2 73
38 3 78
38 4 43
38 5 32
38 6 47
38 7 20
38 8 72
38 9 103
38 10 72
38 11 117
38 12 74
38 13 21
38 14 1
38 15 24
38 16 67
38 17 33
38 18 74
38 19 5
38 20 46
38 21 18
38 22 55
38 23 40
38 24 86
38 25 68
38 26 31
38 27 50
38 28 13
38 29 39
38 30 51
38 31 98
38 32 12
38 33 7
38 34 54
38 35 52
38 36 57
38 37 98
39 0 105
39 1 36
39 2 87
39 3 31
39 4 16
39 5 8
39 6 69
39 7 11
39 8 16
39 9 87
39 10 114
39 11 7
39 12 37
39 13 44
39 14 2
39 15 77
39 16 57
39 17 110
39 18 109
39 19 42
39 20 96
39 21 120
39 22 48
39 23 25
39 24 81
39 25 77
39 26 78
39 27 79
39 28 36
39 29 37
39 30 85
39 31 40
39 32 26
39 33 51
39 34 53
39 35 15
39 36 26
39 37 65
39 38 11
40 0 70
40 1 39
40 2 82
40 3 74
40 4 74
40 5 86
40 6 68
40 7 60
40 8 117
40 9 89
40 10 89
40 11 82
40 12 11
40 13 74
40 14 95
40 15 98
40 16 11
40 17 35
40 18 22
40 19 120
40 20 14
40 21 61
40 22 60
40 23 87
40 24 51
40 25 22
40 26 114
40 27 74
40 28 81
40 29 76
40 30 56
40 31 20
40 32 56
40 33 18
40 34 108
40 35 92
40 36 8
40 37 8
40 38 117
40 39 60
41 0 107
41 1 29
41 2 8
41 3 64
41 4 18
41 5 78
41 6 1
41 7 24
41 8 72
41 9 64
41 10 44
41 11 7
41 12 76
41 13 22
41 14 5
41 15 46
41 16 98
41 17 54
41 18 6
41 19 5
41 20 92
41 21 52
41 22 101
41 23 85
41 24 1
41 25 5
41 26 64
41 27 90
41 28 4
41 29 40
41 30 110
41 31 33
41 32 114
41 33 96
41 34 8
41 35 32
41 36 28
41 37 3
41 38 120
41 39 91
41 40 64
42 0 57
42 1 81
42 2 39
42 3 73
42 4 17
42 5 19
42 6 70
42 7 89
42 8 57
42 9 1
42 10 38
42 11 40
42 12 100
42 13 114
42 14 52
42 15 45
42 16 25
42 17 59
42 18 114
42 19 8
42 20 16
42 21 18
42 22 75
42 23 111
42 24 118
42 25 31
42 26 120
42 27 104
42 28 1
42 29 75
42 30 111
42 31 31
42 32 111
42 33 63
42 34 97
42 35 10
42 36 91
42 37 89
42 38 30
42 39 46
42 40 49
42 41 82
43 0 94
43 1 96
43 2 11
43 3 98
43 4 91
43 5 119
43 6 62
43 7 96
43 8 85
43 9 6
43 10 72
43 11 30
43 12 95
43 13 28
43 14 1
43 15 110
43 16 2
43 17 85
43 18 103
43 19 81
43 20 40
43 21 16
43 22 36
43 23 84
43 24 109
43 25 17
43 26 109
43 27 79
43 28 22
43 29 28
43 30 1
43 31 105
43 32 48
43 33 54
43 34 54
43 35 71
43 36 86
43 37 119
43 38 52
43 39 10
43 40 26
43 41 72
43 42 39
44 0 5
44 1 45
44 2 39
44 3 79
44 4 58
44 5 82
44 6 6
44 7 90
44 8 31
44 9 79
44 10 106
44 11 70
44 12 86
44 13 41
44 14 35
44 15 105
44 16 31
44 17 118
44 18 65
44 19 66
44 20 88
44 21 79
44 22 107
44 23 2
44 24 116
44 25 106
44 26 69
44 27 108
44 28 107
44 29 54
44 30 57
44 31 29
44 32 114
44 33 24
44 34 10
44 35 20
44 36 112
44 37 42
44 38 18
44 39 85
44 40 28
44 41 70
44 42 6
44 43 21
45 0 34
45 1 5
45 2 106
45 3 28
45 4 84
45 5 113
45 6 83
45 7 86
45 8 23
45 9 60
45 10 50
45 11 80
45 12 69
45 13 30
45 14 55
45 15 32
45 16 19
45 17 3
45 18 119
45 19 66
45 20 58
45 21 32
45 22 31
45 23 19
45 24 28
45 25 33
45 26 80
45 27 56
45 28 73
45 29 78
45 30 45
45 31 98
45 32 80
45 33 7
45 34 65
45 35 92
45 36 47
45 37 118
45 38 77
45 39 63
45 40 42
45 41 26
45 42 49
45 43 120
45 44 45
46 0 18
46 1 31
46 2 20
46 3 70
46 4 18
46 5 48
46 6 73
46 7 68
46 8 75
46 9 101
46 10 61
46 11 87
46 12 60
46 13 10
46 14 49
46 15 111
46 16 25
46 17 24
46 18 63
46 19 13
46 20 58
46 21 63
46 22 47
46 23 49
46 24 65
46 25 35
46 26 26
46 27 106
46 28 42
46 29 93
46 30 21
46 31 14
46 32 20
46 33 108
46 34 53
46 35 8
46 36 62
46 37 40
46 38 101
46 39 1
46 40 39
46 41 60
46 42 35
46 43 62
46 44 96
46 45 10
47 0 58
47 1 85
47 2 34
47 3 106
47 4 55
47 5 29
47 6 39
47 7 21
47 8 3
47 9 105
47 10 56
47 11 109
47 12 20
47 13 54
47 14 73
47 15 41
47 16 103
47 17 82
47 18 2
47 19 2
47 20 7
47 21 8
47 22 23
47 23 23
47 24 79
47 25 103
47 26 31
47 27 116
47 28 80
47 29 111
47 30 64
47 31 117
47 32 6
47 33 98
47 34 63
47 35 25
47 36 102
47 37 56
47 38 54
47 39 36
47 40 64
47 41 45
47 42 112
47 43 64
47 44 95
47 45 13
47 46 91
48 0 29
48 1 16
48 2 63
48 3 59
48 4 47
48 5 119
48 6 6
48 7 66
48 8 64
48 9 41
48 10 101
48 11 13
48 12 53
48 13 95
48 14 102
48 15 73
48 16 11
48 17 104
48 18 109
48 19 11
48 20 93
48 21 108
48 22 50
48 23 54
48 24 68
48 25 73
48 26 45
48 27 46
48 28 46
48 29 56
48 30 85
48 31 66
48 32 43
48 33 45
48 34 10
48 35 39
48 36 37
48 37 18
48 38 105
48 39 20
48 40 62
48 41 116
48 42 91
48 43 32
48 44 1
48 45 88
48 46 22
48 47 42
49 0 22
49 1 113
49 2 95
49 3 64
49 4 51
49 5 84
49 6 34
49 7 72
49 8 115
49 9 81
49 10 74
49 11 42
49 12 32
49 13 50
49 14 35
49 15 73
49 16 82
49 17 24
49 18 20
49 19 17
49 20 1
49 21 32
49 22 26
49 23 84
49 24 32
49 25 37
49 26 107
49 27 83
49 28 5
49 29 41
49 30 29
49 31 50
49 32 104
49 33 54
49 34 105
49 35 89
49 36 76
49 37 12
49 38 37
49 39 86
49 40 15
49 41 99
49 42 63
49 43 56
49 44 118
49 45 74
49 46 63
49 47 42
49 48 94
